words_hard_train/6949.qaiger
aag 92 21 0 1 71
2
4
12
20
22
26
28
38
40
52
54
66
68
80
82
94
96
118
130
142
154
184
6 3 4
8 2 5
10 7 9
14 10 13
16 11 12
18 15 17
24 20 22
30 27 29
32 24 31
34 26 28
36 33 35
42 39 41
44 38 40
46 43 45
48 37 46
50 49 45
56 53 55
58 52 54
60 57 59
62 51 60
64 63 59
70 67 69
72 66 68
74 71 73
76 65 74
78 77 73
84 81 83
86 80 82
88 85 87
90 79 88
92 91 87
98 95 97
100 94 96
102 99 101
104 93 102
106 105 101
108 19 106
110 18 107
112 109 111
114 92 103
116 115 105
120 117 119
122 116 118
124 121 123
126 78 89
128 127 91
132 129 130
134 128 131
136 133 135
138 64 75
140 139 77
144 140 143
146 141 142
148 145 147
150 50 61
152 151 63
156 153 154
158 152 155
160 157 159
162 21 23
164 163 25
166 36 47
168 167 49
170 164 169
172 35 31
174 170 173
176 160 174
178 148 176
180 136 178
182 125 180
184 113 182
i0 2 y1[4]
i1 2 y2[7]
i2 1 x2[7]
i3 2 y2[0]
i4 1 x2[0]
i5 2 y2[1]
i6 1 x2[1]
i7 2 y2[2]
i8 1 x2[2]
i9 2 y2[3]
i10 1 x2[3]
i11 2 y2[4]
i12 1 x2[4]
i13 2 y2[5]
i14 1 x2[5]
i15 2 y2[6]
i16 1 x2[6]
i17 2 y1[3]
i18 2 y1[2]
i19 2 y1[1]
i20 2 y1[0]
o0 bool[0]
c
simplified
  ==
    add
      2 y2
      1 x2
    add
      << 3
        2 y1
      1
