words_hard_train/6949.qaiger.qdimacs
p cnf 92 214
a 34 6 41 11 14 48 20 27 0
e 1 2 3 4 5 7 8 9 10 12 13 15 16 17 18 19 21 22 23 24 25 26 28 29 30 31 32 33 35 36 37 38 39 40 42 43 44 45 46 47 49 50 51 52 53 54 55 56 57 58 59 60 61 62 63 64 65 66 67 68 69 70 71 72 73 74 75 76 77 78 79 80 81 82 83 84 85 86 87 88 89 90 91 92 0
1 -2 3 0
-1 -3 0
2 -3 0
-1 2 4 0
1 -4 0
-2 -4 0
3 4 5 0
-3 -5 0
-4 -5 0
-5 6 7 0
5 -7 0
-6 -7 0
5 -6 8 0
-5 -8 0
6 -8 0
7 8 9 0
-7 -9 0
-8 -9 0
-10 -11 12 0
10 -12 0
11 -12 0
13 14 15 0
-13 -15 0
-14 -15 0
-12 15 16 0
12 -16 0
-15 -16 0
-13 -14 17 0
13 -17 0
14 -17 0
16 17 18 0
-16 -18 0
-17 -18 0
19 20 21 0
-19 -21 0
-20 -21 0
-19 -20 22 0
19 -22 0
20 -22 0
21 22 23 0
-21 -23 0
-22 -23 0
18 -23 24 0
-18 -24 0
23 -24 0
24 22 25 0
-24 -25 0
-22 -25 0
26 27 28 0
-26 -28 0
-27 -28 0
-26 -27 29 0
26 -29 0
27 -29 0
28 29 30 0
-28 -30 0
-29 -30 0
25 -30 31 0
-25 -31 0
30 -31 0
31 29 32 0
-31 -32 0
-29 -32 0
33 34 35 0
-33 -35 0
-34 -35 0
-33 -34 36 0
33 -36 0
34 -36 0
35 36 37 0
-35 -37 0
-36 -37 0
32 -37 38 0
-32 -38 0
37 -38 0
38 36 39 0
-38 -39 0
-36 -39 0
40 41 42 0
-40 -42 0
-41 -42 0
-40 -41 43 0
40 -43 0
41 -43 0
42 43 44 0
-42 -44 0
-43 -44 0
39 -44 45 0
-39 -45 0
44 -45 0
45 43 46 0
-45 -46 0
-43 -46 0
47 48 49 0
-47 -49 0
-48 -49 0
-47 -48 50 0
47 -50 0
48 -50 0
49 50 51 0
-49 -51 0
-50 -51 0
46 -51 52 0
-46 -52 0
51 -52 0
52 50 53 0
-52 -53 0
-50 -53 0
9 -53 54 0
-9 -54 0
53 -54 0
-9 53 55 0
9 -55 0
-53 -55 0
54 55 56 0
-54 -56 0
-55 -56 0
-46 51 57 0
46 -57 0
-51 -57 0
57 52 58 0
-57 -58 0
-52 -58 0
58 59 60 0
-58 -60 0
-59 -60 0
-58 -59 61 0
58 -61 0
59 -61 0
60 61 62 0
-60 -62 0
-61 -62 0
-39 44 63 0
39 -63 0
-44 -63 0
63 45 64 0
-63 -64 0
-45 -64 0
64 -65 66 0
-64 -66 0
65 -66 0
-64 65 67 0
64 -67 0
-65 -67 0
66 67 68 0
-66 -68 0
-67 -68 0
-32 37 69 0
32 -69 0
-37 -69 0
69 38 70 0
-69 -70 0
-38 -70 0
-70 71 72 0
70 -72 0
-71 -72 0
70 -71 73 0
-70 -73 0
71 -73 0
72 73 74 0
-72 -74 0
-73 -74 0
-25 30 75 0
25 -75 0
-30 -75 0
75 31 76 0
-75 -76 0
-31 -76 0
76 -77 78 0
-76 -78 0
77 -78 0
-76 77 79 0
76 -79 0
-77 -79 0
78 79 80 0
-78 -80 0
-79 -80 0
10 11 81 0
-10 -81 0
-11 -81 0
81 12 82 0
-81 -82 0
-12 -82 0
-18 23 83 0
18 -83 0
-23 -83 0
83 24 84 0
-83 -84 0
-24 -84 0
-82 84 85 0
82 -85 0
-84 -85 0
17 15 86 0
-17 -86 0
-15 -86 0
-85 86 87 0
85 -87 0
-86 -87 0
-80 -87 88 0
80 -88 0
87 -88 0
-74 -88 89 0
74 -89 0
88 -89 0
-68 -89 90 0
68 -90 0
89 -90 0
62 -90 91 0
-62 -91 0
90 -91 0
56 -91 92 0
-56 -92 0
91 -92 0
92 0
